row=9;
column=9;
Board=[|0,0,5,2,4,0,3,0,0|0,0,0,6,0,0,9,5,0|2,1,0,0,0,0,8,0,0|0,0,1,3,8,5,6,0,0|0,0,4,0,6,0,0,0,0|1,0,0,0,0,4,0,7,0|7,0,6,0,0,0,4,1,5|0,0,3,0,5,6,0,9,0|0,0,0,0,1,3,0,0,0|];
Region=[|1,1,1,2,2,3,3,3,3|1,1,1,2,2,2,3,3,3|1,1,1,2,2,2,6,3,3|4,4,5,5,2,5,6,6,6|4,4,4,5,5,5,6,6,6|4,4,4,5,5,5,6,6,9|7,4,7,8,8,8,9,9,9|7,7,7,7,8,8,8,9,9|7,7,7,8,8,8,9,9,9|];
OE=[|0,1,1,0,0,1,1,0,1|1,0,0,0,1,1,1,1,0|0,1,1,1,1,1,0,0,0|1,1,1,1,0,1,0,0,0|0,1,0,1,0,0,1,1,1|1,0,0,0,1,0,1,1,1|1,1,0,1,0,0,0,1,1|0,0,1,1,1,0,1,1,0|1,0,1,0,1,1,0,0,1|];
